<number of tasks>
50

<cycle time>
1000

<order strength>
0.195


<task times>
1 463
2 642
3 446
4 643
5 570
6 561
7 462
8 371
9 480
10 407
11 496
12 555
13 514
14 358
15 625
16 593
17 404
18 415
19 317
20 539
21 520
22 462
23 719
24 397
25 601
26 337
27 509
28 375
29 487
30 638
31 456
32 284
33 552
34 469
35 435
36 624
37 540
38 348
39 374
40 457
41 354
42 523
43 426
44 480
45 578
46 823
47 296
48 423
49 589
50 418

<precedence relations>
1,3
1,4
1,5
1,6
1,7
2,13
2,20
2,38
3,8
4,11
5,9
5,13
6,10
6,12
6,28
6,44
7,20
8,15
9,16
10,17
11,14
12,18
12,20
12,21
12,27
13,19
14,22
15,23
16,28
17,25
18,26
19,24
19,27
19,30
19,40
20,29
20,32
20,39
21,31
21,49
22,37
23,35
24,36
25,33
26,38
27,34
28,40
30,39
31,39
31,41
33,42
34,43
35,44
36,45
37,48
38,46
38,47
40,45
42,48
43,49
46,50

<end>
